
;this file is automatically generated: Thu Jun 25 12:16:23 CST 2020

;declarations generated

(declare-fun rel_ba5849b9_ab5d_42b9_8a2d_8aea20729435_study ( Int Int) Bool)
(declare-fun Gender ( Int) Int)
(declare-fun oclExcludes ( Int Int) Bool)
(declare-fun k2ce15d14_ef7e_4e04_8091_f4ea06a71954 () Int)
(declare-fun type_ae0e10fd_1488_46df_9159_c9ebf4cf667f_Student ( Int) Bool)
(declare-fun Cardinality ( Int) Int)
(declare-fun type_ae0e10fd_1488_46df_9159_c9ebf4cf667f_Person ( Int) Bool)
(declare-fun obj_1e9a300a_ff62_4517_9ac6_1e41785a7306 ( Int) Int)
(declare-fun student_year ( Int) Int)
(declare-fun type_ae0e10fd_1488_46df_9159_c9ebf4cf667f_Module ( Int) Bool)
(declare-fun oclSelect ( Int Bool) Int)
(declare-fun kbda3f63c_98fa_4801_99a4_92502f890e26 () Int)
(declare-fun module_year ( Int) Int)
(declare-fun container_ ( Int) Int)
(declare-fun oclIncludes ( Int Int) Bool)
(declare-fun ObjAt ( Int Int) Int)

;formula(s) generated
(assert (forall ((x Int)(y Int)) (=> (and ( rel_ba5849b9_ab5d_42b9_8a2d_8aea20729435_study ( obj_1e9a300a_ff62_4517_9ac6_1e41785a7306 x )   ( obj_1e9a300a_ff62_4517_9ac6_1e41785a7306 y )  )  (and (and ( type_ae0e10fd_1488_46df_9159_c9ebf4cf667f_Student x )  ( type_ae0e10fd_1488_46df_9159_c9ebf4cf667f_Person x ) ) ( type_ae0e10fd_1488_46df_9159_c9ebf4cf667f_Module y ) )) (or (or (or (= (* ( Cardinality ( container_ x )  )  0) (* ( Cardinality ( container_ y )  )  1)) (and (= (* ( Cardinality ( container_ y )  )  1) (* ( Cardinality ( container_ x )  )  kbda3f63c_98fa_4801_99a4_92502f890e26)) (>= kbda3f63c_98fa_4801_99a4_92502f890e26 0))) (= (* ( Cardinality ( container_ x )  )  0) (* ( Cardinality ( container_ y )  )  1))) (and (= (* ( Cardinality ( container_ y )  )  1) (* ( Cardinality ( container_ x )  )  k2ce15d14_ef7e_4e04_8091_f4ea06a71954)) (>= k2ce15d14_ef7e_4e04_8091_f4ea06a71954 0))))))
(assert (! (and (forall ((v Int)) (=> (and ( type_ae0e10fd_1488_46df_9159_c9ebf4cf667f_Student v )  ( type_ae0e10fd_1488_46df_9159_c9ebf4cf667f_Person v ) ) (>= ( student_year ( obj_1e9a300a_ff62_4517_9ac6_1e41785a7306 v )  )  1))) (forall ((v Int)) (=> (and ( type_ae0e10fd_1488_46df_9159_c9ebf4cf667f_Student v )  ( type_ae0e10fd_1488_46df_9159_c9ebf4cf667f_Person v ) ) (<= ( student_year ( obj_1e9a300a_ff62_4517_9ac6_1e41785a7306 v )  )  6)))):named l0))
(assert (! (and (exists ((s Int)) (and (and ( type_ae0e10fd_1488_46df_9159_c9ebf4cf667f_Student s )  ( type_ae0e10fd_1488_46df_9159_c9ebf4cf667f_Person s ) ) (= ( student_year ( obj_1e9a300a_ff62_4517_9ac6_1e41785a7306 s )  )  6))) (exists ((s Int)) (and (and ( type_ae0e10fd_1488_46df_9159_c9ebf4cf667f_Student s )  ( type_ae0e10fd_1488_46df_9159_c9ebf4cf667f_Person s ) ) (< ( student_year ( obj_1e9a300a_ff62_4517_9ac6_1e41785a7306 s )  )  6)))):named l1))
(assert (! (forall ((s1 Int)) (=> (and ( type_ae0e10fd_1488_46df_9159_c9ebf4cf667f_Student s1 )  ( type_ae0e10fd_1488_46df_9159_c9ebf4cf667f_Person s1 ) ) (forall ((m1 Int)) (=> (and ( type_ae0e10fd_1488_46df_9159_c9ebf4cf667f_Module m1 )  ( rel_ba5849b9_ab5d_42b9_8a2d_8aea20729435_study ( obj_1e9a300a_ff62_4517_9ac6_1e41785a7306 s1 )   ( obj_1e9a300a_ff62_4517_9ac6_1e41785a7306 m1 )  ) ) (= ( student_year ( obj_1e9a300a_ff62_4517_9ac6_1e41785a7306 s1 )  )  ( module_year ( obj_1e9a300a_ff62_4517_9ac6_1e41785a7306 m1 )  ) ))))):named l2))
(assert (! (and (forall ((v Int)) (=> ( type_ae0e10fd_1488_46df_9159_c9ebf4cf667f_Module v )  (>= ( module_year ( obj_1e9a300a_ff62_4517_9ac6_1e41785a7306 v )  )  1))) (forall ((v Int)) (=> ( type_ae0e10fd_1488_46df_9159_c9ebf4cf667f_Module v )  (<= ( module_year ( obj_1e9a300a_ff62_4517_9ac6_1e41785a7306 v )  )  5)))):named l3))
(assert (! (forall ((s Int)) (=> (and ( type_ae0e10fd_1488_46df_9159_c9ebf4cf667f_Student s )  ( type_ae0e10fd_1488_46df_9159_c9ebf4cf667f_Person s ) ) (exists ((v Int)) (and ( type_ae0e10fd_1488_46df_9159_c9ebf4cf667f_Module v )  ( rel_ba5849b9_ab5d_42b9_8a2d_8aea20729435_study ( obj_1e9a300a_ff62_4517_9ac6_1e41785a7306 s )   ( obj_1e9a300a_ff62_4517_9ac6_1e41785a7306 v )  ) )))):named l4))
(assert (exists ((o Int)) (and ( type_ae0e10fd_1488_46df_9159_c9ebf4cf667f_Student ( obj_1e9a300a_ff62_4517_9ac6_1e41785a7306 o )  )  ( type_ae0e10fd_1488_46df_9159_c9ebf4cf667f_Person ( obj_1e9a300a_ff62_4517_9ac6_1e41785a7306 o )  ) )))
(assert (exists ((o Int)) (and (and ( type_ae0e10fd_1488_46df_9159_c9ebf4cf667f_Student ( obj_1e9a300a_ff62_4517_9ac6_1e41785a7306 o )  )  ( type_ae0e10fd_1488_46df_9159_c9ebf4cf667f_Person ( obj_1e9a300a_ff62_4517_9ac6_1e41785a7306 o )  ) ) ( type_ae0e10fd_1488_46df_9159_c9ebf4cf667f_Module ( obj_1e9a300a_ff62_4517_9ac6_1e41785a7306 o )  ) )))

 ;end of formula 